c Permutation twin of chain_20_seed1001.cnf
c Generated by mu_sat_difficulty_scale.py
p cnf 20 56
-5 11 0
14 3 0
-6 17 0
8 7 0
-14 -9 9 0
-15 1 0
-18 16 0
-7 -8 8 0
4 15 0
15 1 0
-16 -18 18 0
-5 -13 13 0
-2 13 0
-6 -10 10 0
6 17 0
-19 -12 12 0
-8 -19 19 0
7 20 0
-9 14 0
18 16 0
-1 -15 15 0
9 14 0
-4 -20 20 0
-20 4 0
10 6 0
-10 -1 1 0
12 19 0
-4 15 0
-10 6 0
-3 2 0
-14 3 0
-8 7 0
-20 -7 7 0
-13 5 0
19 8 0
-1 10 0
20 4 0
-19 8 0
5 11 0
-16 12 0
-2 -3 3 0
3 2 0
-15 -4 4 0
-3 -14 14 0
13 5 0
-13 -2 2 0
-17 -6 6 0
2 13 0
-9 -17 17 0
-7 20 0
-12 -16 16 0
17 9 0
16 12 0
1 10 0
-17 9 0
-12 19 0
